DIMENSION: 7
NODE_COORD_SECTION
1 408.7452471483 1667.1532846715
2 -910.0686498856 -9940.5405405405
3 -2578.3783783784 -237.8566457898
4 -170.3308431163 -219.9522102748
5 -1060.8365019011 340.9796893668
6 -6.6168623266 -5263.4920634921
7 56.7282321900 -546.3878326996
